2 34 
22 17 
30 65 
6 8 
92 80 
96 46 
93 93 
8 4 
59 30 
34 16 
60 69 
35 97 
58 68 
44 11 
39 30 
87 41 
16 9 
10 47 
74 16 
7 18 
97 3 
64 90 
48 24 
47 7 
54 33 
75 15 
2 11 
64 12 
31 9 
24 70 
91 63 
64 7 
24 74 
54 50 
91 13 
68 88 
68 84 
30 69 
8 77 
28 63 
62 4 
30 65 
67 94 
29 98 
55 53 
21 46 
68 85 
54 92 
11 60 
42 2 
